c File: flat50_3_0.col
c
c SOURCE: Joseph Culberson (joe@cs.ualberta.ca)
c DESCRIPTION: Quasi-random coloring problem
c              generated with flatness = 0
c                             probability = 0.139
c                             known coloring = 3
c                             random seed = 1289
c              Creation Date:  Tue Jun  9 12:05:43 1998
c Maximum degree = 8 Minimum degree = 1
c p edge 50 115
c cnf created by edge2cnf
p cnf 150 545
-1 -2 0
-1 -3 0
-2 -3 0
1 2 3 0
-4 -5 0
-4 -6 0
-5 -6 0
4 5 6 0
-7 -8 0
-7 -9 0
-8 -9 0
7 8 9 0
-10 -11 0
-10 -12 0
-11 -12 0
10 11 12 0
-13 -14 0
-13 -15 0
-14 -15 0
13 14 15 0
-16 -17 0
-16 -18 0
-17 -18 0
16 17 18 0
-19 -20 0
-19 -21 0
-20 -21 0
19 20 21 0
-22 -23 0
-22 -24 0
-23 -24 0
22 23 24 0
-25 -26 0
-25 -27 0
-26 -27 0
25 26 27 0
-28 -29 0
-28 -30 0
-29 -30 0
28 29 30 0
-31 -32 0
-31 -33 0
-32 -33 0
31 32 33 0
-34 -35 0
-34 -36 0
-35 -36 0
34 35 36 0
-37 -38 0
-37 -39 0
-38 -39 0
37 38 39 0
-40 -41 0
-40 -42 0
-41 -42 0
40 41 42 0
-43 -44 0
-43 -45 0
-44 -45 0
43 44 45 0
-46 -47 0
-46 -48 0
-47 -48 0
46 47 48 0
-49 -50 0
-49 -51 0
-50 -51 0
49 50 51 0
-52 -53 0
-52 -54 0
-53 -54 0
52 53 54 0
-55 -56 0
-55 -57 0
-56 -57 0
55 56 57 0
-58 -59 0
-58 -60 0
-59 -60 0
58 59 60 0
-61 -62 0
-61 -63 0
-62 -63 0
61 62 63 0
-64 -65 0
-64 -66 0
-65 -66 0
64 65 66 0
-67 -68 0
-67 -69 0
-68 -69 0
67 68 69 0
-70 -71 0
-70 -72 0
-71 -72 0
70 71 72 0
-73 -74 0
-73 -75 0
-74 -75 0
73 74 75 0
-76 -77 0
-76 -78 0
-77 -78 0
76 77 78 0
-79 -80 0
-79 -81 0
-80 -81 0
79 80 81 0
-82 -83 0
-82 -84 0
-83 -84 0
82 83 84 0
-85 -86 0
-85 -87 0
-86 -87 0
85 86 87 0
-88 -89 0
-88 -90 0
-89 -90 0
88 89 90 0
-91 -92 0
-91 -93 0
-92 -93 0
91 92 93 0
-94 -95 0
-94 -96 0
-95 -96 0
94 95 96 0
-97 -98 0
-97 -99 0
-98 -99 0
97 98 99 0
-100 -101 0
-100 -102 0
-101 -102 0
100 101 102 0
-103 -104 0
-103 -105 0
-104 -105 0
103 104 105 0
-106 -107 0
-106 -108 0
-107 -108 0
106 107 108 0
-109 -110 0
-109 -111 0
-110 -111 0
109 110 111 0
-112 -113 0
-112 -114 0
-113 -114 0
112 113 114 0
-115 -116 0
-115 -117 0
-116 -117 0
115 116 117 0
-118 -119 0
-118 -120 0
-119 -120 0
118 119 120 0
-121 -122 0
-121 -123 0
-122 -123 0
121 122 123 0
-124 -125 0
-124 -126 0
-125 -126 0
124 125 126 0
-127 -128 0
-127 -129 0
-128 -129 0
127 128 129 0
-130 -131 0
-130 -132 0
-131 -132 0
130 131 132 0
-133 -134 0
-133 -135 0
-134 -135 0
133 134 135 0
-136 -137 0
-136 -138 0
-137 -138 0
136 137 138 0
-139 -140 0
-139 -141 0
-140 -141 0
139 140 141 0
-142 -143 0
-142 -144 0
-143 -144 0
142 143 144 0
-145 -146 0
-145 -147 0
-146 -147 0
145 146 147 0
-148 -149 0
-148 -150 0
-149 -150 0
148 149 150 0
-52 -1 0
-53 -2 0
-54 -3 0
-55 -1 0
-56 -2 0
-57 -3 0
-82 -1 0
-83 -2 0
-84 -3 0
-85 -1 0
-86 -2 0
-87 -3 0
-118 -1 0
-119 -2 0
-120 -3 0
-127 -1 0
-128 -2 0
-129 -3 0
-130 -1 0
-131 -2 0
-132 -3 0
-136 -1 0
-137 -2 0
-138 -3 0
-61 -4 0
-62 -5 0
-63 -6 0
-67 -4 0
-68 -5 0
-69 -6 0
-79 -4 0
-80 -5 0
-81 -6 0
-106 -4 0
-107 -5 0
-108 -6 0
-127 -4 0
-128 -5 0
-129 -6 0
-142 -4 0
-143 -5 0
-144 -6 0
-148 -4 0
-149 -5 0
-150 -6 0
-64 -7 0
-65 -8 0
-66 -9 0
-70 -7 0
-71 -8 0
-72 -9 0
-79 -7 0
-80 -8 0
-81 -9 0
-103 -7 0
-104 -8 0
-105 -9 0
-115 -7 0
-116 -8 0
-117 -9 0
-136 -7 0
-137 -8 0
-138 -9 0
-58 -10 0
-59 -11 0
-60 -12 0
-76 -10 0
-77 -11 0
-78 -12 0
-91 -10 0
-92 -11 0
-93 -12 0
-145 -10 0
-146 -11 0
-147 -12 0
-73 -13 0
-74 -14 0
-75 -15 0
-100 -13 0
-101 -14 0
-102 -15 0
-97 -16 0
-98 -17 0
-99 -18 0
-118 -16 0
-119 -17 0
-120 -18 0
-91 -19 0
-92 -20 0
-93 -21 0
-94 -19 0
-95 -20 0
-96 -21 0
-97 -19 0
-98 -20 0
-99 -21 0
-100 -19 0
-101 -20 0
-102 -21 0
-64 -22 0
-65 -23 0
-66 -24 0
-109 -22 0
-110 -23 0
-111 -24 0
-112 -22 0
-113 -23 0
-114 -24 0
-124 -22 0
-125 -23 0
-126 -24 0
-130 -22 0
-131 -23 0
-132 -24 0
-61 -25 0
-62 -26 0
-63 -27 0
-73 -25 0
-74 -26 0
-75 -27 0
-82 -25 0
-83 -26 0
-84 -27 0
-88 -25 0
-89 -26 0
-90 -27 0
-103 -25 0
-104 -26 0
-105 -27 0
-127 -25 0
-128 -26 0
-129 -27 0
-70 -28 0
-71 -29 0
-72 -30 0
-91 -28 0
-92 -29 0
-93 -30 0
-121 -28 0
-122 -29 0
-123 -30 0
-136 -28 0
-137 -29 0
-138 -30 0
-139 -28 0
-140 -29 0
-141 -30 0
-142 -28 0
-143 -29 0
-144 -30 0
-67 -31 0
-68 -32 0
-69 -33 0
-97 -34 0
-98 -35 0
-99 -36 0
-115 -34 0
-116 -35 0
-117 -36 0
-118 -34 0
-119 -35 0
-120 -36 0
-121 -34 0
-122 -35 0
-123 -36 0
-127 -34 0
-128 -35 0
-129 -36 0
-61 -37 0
-62 -38 0
-63 -39 0
-76 -37 0
-77 -38 0
-78 -39 0
-88 -37 0
-89 -38 0
-90 -39 0
-103 -37 0
-104 -38 0
-105 -39 0
-130 -37 0
-131 -38 0
-132 -39 0
-136 -37 0
-137 -38 0
-138 -39 0
-142 -37 0
-143 -38 0
-144 -39 0
-94 -40 0
-95 -41 0
-96 -42 0
-145 -40 0
-146 -41 0
-147 -42 0
-148 -40 0
-149 -41 0
-150 -42 0
-58 -43 0
-59 -44 0
-60 -45 0
-61 -46 0
-62 -47 0
-63 -48 0
-73 -46 0
-74 -47 0
-75 -48 0
-79 -46 0
-80 -47 0
-81 -48 0
-94 -46 0
-95 -47 0
-96 -48 0
-106 -46 0
-107 -47 0
-108 -48 0
-124 -46 0
-125 -47 0
-126 -48 0
-139 -46 0
-140 -47 0
-141 -48 0
-94 -49 0
-95 -50 0
-96 -51 0
-97 -49 0
-98 -50 0
-99 -51 0
-103 -49 0
-104 -50 0
-105 -51 0
-109 -52 0
-110 -53 0
-111 -54 0
-109 -58 0
-110 -59 0
-111 -60 0
-121 -58 0
-122 -59 0
-123 -60 0
-130 -58 0
-131 -59 0
-132 -60 0
-115 -61 0
-116 -62 0
-117 -63 0
-127 -64 0
-128 -65 0
-129 -66 0
-148 -64 0
-149 -65 0
-150 -66 0
-106 -67 0
-107 -68 0
-108 -69 0
-136 -67 0
-137 -68 0
-138 -69 0
-139 -67 0
-140 -68 0
-141 -69 0
-142 -67 0
-143 -68 0
-144 -69 0
-109 -70 0
-110 -71 0
-111 -72 0
-133 -70 0
-134 -71 0
-135 -72 0
-145 -70 0
-146 -71 0
-147 -72 0
-124 -73 0
-125 -74 0
-126 -75 0
-127 -73 0
-128 -74 0
-129 -75 0
-133 -73 0
-134 -74 0
-135 -75 0
-127 -79 0
-128 -80 0
-129 -81 0
-118 -82 0
-119 -83 0
-120 -84 0
-130 -82 0
-131 -83 0
-132 -84 0
-133 -82 0
-134 -83 0
-135 -84 0
-145 -82 0
-146 -83 0
-147 -84 0
-103 -85 0
-104 -86 0
-105 -87 0
-112 -85 0
-113 -86 0
-114 -87 0
-136 -85 0
-137 -86 0
-138 -87 0
-148 -85 0
-149 -86 0
-150 -87 0
-106 -88 0
-107 -89 0
-108 -90 0
-115 -88 0
-116 -89 0
-117 -90 0
-133 -88 0
-134 -89 0
-135 -90 0
-145 -88 0
-146 -89 0
-147 -90 0
-124 -91 0
-125 -92 0
-126 -93 0
-136 -91 0
-137 -92 0
-138 -93 0
-106 -94 0
-107 -95 0
-108 -96 0
-130 -94 0
-131 -95 0
-132 -96 0
-139 -97 0
-140 -98 0
-141 -99 0
-103 -100 0
-104 -101 0
-105 -102 0
-121 -100 0
-122 -101 0
-123 -102 0
-127 -100 0
-128 -101 0
-129 -102 0
